c Command line: hgen8 165 70
p cnf 165 259
63 104 46 3 0
41 120 77 148 0
18 74 89 153 0
110 75 128 65 0
26 1 62 122 0
4 129 79 27 0
150 142 54 9 0
99 151 155 149 0
162 126 49 105 0
90 91 57 17 0
143 111 8 109 0
98 97 132 119 0
152 137 164 58 0
135 6 59 36 0
138 43 131 159 0
160 125 118 163 0
66 123 39 88 0
115 124 102 156 0
32 87 106 116 0
108 60 82 12 0
35 157 25 28 0
23 146 44 48 0
51 24 2 50 0
5 92 83 107 0
93 56 73 31 0
10 85 16 96 0
113 114 38 34 0
95 117 29 19 0
55 40 141 130 0
45 147 94 30 0
13 37 101 121 0
145 61 86 78 0
140 80 70 144 0
112 76 81 22 0
-1 -2 0
-1 -3 0
-1 -4 0
-1 -5 0
-2 -3 0
-2 -4 0
-2 -5 0
-3 -4 0
-3 -5 0
-4 -5 0
-6 -8 0
-6 -9 0
-6 -10 0
-8 -9 0
-8 -10 0
-9 -10 0
-12 -13 0
-16 -17 0
-16 -18 0
-16 -19 0
-17 -18 0
-17 -19 0
-18 -19 0
-22 -23 0
-22 -24 0
-22 -25 0
-23 -24 0
-23 -25 0
-24 -25 0
-26 -27 0
-26 -28 0
-26 -29 0
-26 -30 0
-27 -28 0
-27 -29 0
-27 -30 0
-28 -29 0
-28 -30 0
-29 -30 0
-31 -32 0
-31 -34 0
-31 -35 0
-32 -34 0
-32 -35 0
-34 -35 0
-36 -37 0
-36 -38 0
-36 -39 0
-36 -40 0
-37 -38 0
-37 -39 0
-37 -40 0
-38 -39 0
-38 -40 0
-39 -40 0
-41 -43 0
-41 -44 0
-41 -45 0
-43 -44 0
-43 -45 0
-44 -45 0
-46 -48 0
-46 -49 0
-46 -50 0
-48 -49 0
-48 -50 0
-49 -50 0
-51 -54 0
-51 -55 0
-54 -55 0
-56 -57 0
-56 -58 0
-56 -59 0
-56 -60 0
-57 -58 0
-57 -59 0
-57 -60 0
-58 -59 0
-58 -60 0
-59 -60 0
-61 -62 0
-61 -63 0
-61 -65 0
-62 -63 0
-62 -65 0
-63 -65 0
-66 -70 0
-73 -74 0
-73 -75 0
-74 -75 0
-76 -77 0
-76 -78 0
-76 -79 0
-76 -80 0
-77 -78 0
-77 -79 0
-77 -80 0
-78 -79 0
-78 -80 0
-79 -80 0
-81 -82 0
-81 -83 0
-81 -85 0
-82 -83 0
-82 -85 0
-83 -85 0
-86 -87 0
-86 -88 0
-86 -89 0
-86 -90 0
-87 -88 0
-87 -89 0
-87 -90 0
-88 -89 0
-88 -90 0
-89 -90 0
-91 -92 0
-91 -93 0
-91 -94 0
-91 -95 0
-92 -93 0
-92 -94 0
-92 -95 0
-93 -94 0
-93 -95 0
-94 -95 0
-96 -97 0
-96 -98 0
-96 -99 0
-97 -98 0
-97 -99 0
-98 -99 0
-101 -102 0
-101 -104 0
-101 -105 0
-102 -104 0
-102 -105 0
-104 -105 0
-106 -107 0
-106 -108 0
-106 -109 0
-106 -110 0
-107 -108 0
-107 -109 0
-107 -110 0
-108 -109 0
-108 -110 0
-109 -110 0
-111 -112 0
-111 -113 0
-111 -114 0
-111 -115 0
-112 -113 0
-112 -114 0
-112 -115 0
-113 -114 0
-113 -115 0
-114 -115 0
-116 -117 0
-116 -118 0
-116 -119 0
-116 -120 0
-117 -118 0
-117 -119 0
-117 -120 0
-118 -119 0
-118 -120 0
-119 -120 0
-121 -122 0
-121 -123 0
-121 -124 0
-121 -125 0
-122 -123 0
-122 -124 0
-122 -125 0
-123 -124 0
-123 -125 0
-124 -125 0
-126 -128 0
-126 -129 0
-126 -130 0
-128 -129 0
-128 -130 0
-129 -130 0
-131 -132 0
-131 -135 0
-132 -135 0
-137 -138 0
-137 -140 0
-138 -140 0
-141 -142 0
-141 -143 0
-141 -144 0
-141 -145 0
-142 -143 0
-142 -144 0
-142 -145 0
-143 -144 0
-143 -145 0
-144 -145 0
-146 -147 0
-146 -148 0
-146 -149 0
-146 -150 0
-147 -148 0
-147 -149 0
-147 -150 0
-148 -149 0
-148 -150 0
-149 -150 0
-151 -152 0
-151 -153 0
-151 -155 0
-152 -153 0
-152 -155 0
-153 -155 0
-156 -157 0
-156 -159 0
-156 -160 0
-157 -159 0
-157 -160 0
-159 -160 0
-162 -163 0
-162 -164 0
-163 -164 0
